NAME: cuum640.tsp
TYPE: TSP
COMMENT: User-generated TSP file
DIMENSION: 640
EDGE_WEIGHT_TYPE: EUC_2D
NODE_COORD_SECTION
1 63.0 194.0
2 89.0 6.0
3 590.0 219.0
4 147.0 267.0
5 580.0 340.0
6 512.0 399.0
7 131.0 267.0
8 74.0 493.0
9 506.0 476.0
10 44.0 617.0
11 565.0 521.0
12 148.0 309.0
13 231.0 132.0
14 99.0 6.0
15 187.0 410.0
16 512.0 71.0
17 497.0 174.0
18 78.0 623.0
19 515.0 491.0
20 102.0 295.0
21 234.0 496.0
22 500.0 3.0
23 628.0 363.0
24 372.0 321.0
25 28.0 253.0
26 407.0 222.0
27 545.0 48.0
28 617.0 107.0
29 39.0 303.0
30 537.0 51.0
31 195.0 503.0
32 278.0 85.0
33 600.0 464.0
34 387.0 344.0
35 259.0 88.0
36 18.0 450.0
37 156.0 320.0
38 223.0 335.0
39 574.0 141.0
40 569.0 93.0
41 151.0 411.0
42 77.0 438.0
43 260.0 507.0
44 288.0 60.0
45 12.0 170.0
46 337.0 171.0
47 270.0 420.0
48 628.0 529.0
49 169.0 428.0
50 177.0 62.0
51 113.0 517.0
52 319.0 265.0
53 287.0 350.0
54 530.0 546.0
55 568.0 243.0
56 181.0 131.0
57 349.0 43.0
58 198.0 82.0
59 620.0 206.0
60 346.0 403.0
61 298.0 408.0
62 146.0 277.0
63 247.0 206.0
64 359.0 307.0
65 136.0 345.0
66 115.0 253.0
67 239.0 498.0
68 534.0 370.0
69 104.0 515.0
70 440.0 379.0
71 293.0 290.0
72 137.0 535.0
73 606.0 356.0
74 320.0 593.0
75 308.0 244.0
76 560.0 484.0
77 620.0 228.0
78 371.0 543.0
79 143.0 120.0
80 362.0 490.0
81 572.0 604.0
82 636.0 515.0
83 625.0 321.0
84 376.0 613.0
85 204.0 553.0
86 303.0 319.0
87 595.0 474.0
88 370.0 358.0
89 503.0 321.0
90 525.0 100.0
91 146.0 45.0
92 75.0 306.0
93 365.0 17.0
94 597.0 397.0
95 76.0 348.0
96 545.0 2.0
97 31.0 184.0
98 574.0 192.0
99 224.0 543.0
100 426.0 441.0
101 510.0 625.0
102 256.0 605.0
103 623.0 190.0
104 313.0 219.0
105 167.0 467.0
106 110.0 292.0
107 378.0 105.0
108 311.0 230.0
109 146.0 544.0
110 494.0 499.0
111 415.0 146.0
112 589.0 572.0
113 255.0 254.0
114 220.0 118.0
115 288.0 39.0
116 303.0 603.0
117 313.0 130.0
118 236.0 550.0
119 60.0 500.0
120 101.0 531.0
121 68.0 354.0
122 184.0 609.0
123 482.0 619.0
124 443.0 513.0
125 240.0 332.0
126 58.0 625.0
127 155.0 417.0
128 243.0 633.0
129 368.0 278.0
130 52.0 348.0
131 526.0 493.0
132 323.0 45.0
133 17.0 509.0
134 516.0 366.0
135 71.0 184.0
136 442.0 595.0
137 10.0 186.0
138 318.0 129.0
139 226.0 630.0
140 370.0 307.0
141 357.0 94.0
142 179.0 384.0
143 543.0 383.0
144 173.0 236.0
145 596.0 95.0
146 160.0 430.0
147 53.0 471.0
148 567.0 237.0
149 318.0 557.0
150 34.0 44.0
151 7.0 88.0
152 111.0 550.0
153 457.0 311.0
154 559.0 607.0
155 484.0 571.0
156 89.0 407.0
157 143.0 297.0
158 280.0 190.0
159 239.0 635.0
160 57.0 24.0
161 179.0 399.0
162 263.0 302.0
163 500.0 67.0
164 328.0 402.0
165 78.0 431.0
166 47.0 328.0
167 90.0 340.0
168 264.0 120.0
169 195.0 614.0
170 384.0 352.0
171 93.0 618.0
172 40.0 33.0
173 223.0 153.0
174 247.0 1.0
175 469.0 360.0
176 211.0 633.0
177 1.0 598.0
178 340.0 611.0
179 149.0 253.0
180 419.0 356.0
181 313.0 539.0
182 284.0 566.0
183 11.0 418.0
184 143.0 631.0
185 433.0 638.0
186 640.0 370.0
187 366.0 294.0
188 639.0 46.0
189 629.0 188.0
190 333.0 324.0
191 236.0 426.0
192 544.0 562.0
193 598.0 428.0
194 9.0 263.0
195 182.0 16.0
196 296.0 302.0
197 610.0 240.0
198 52.0 21.0
199 583.0 233.0
200 599.0 583.0
201 327.0 308.0
202 503.0 106.0
203 313.0 165.0
204 58.0 468.0
205 386.0 326.0
206 425.0 334.0
207 484.0 547.0
208 178.0 87.0
209 201.0 604.0
210 530.0 625.0
211 93.0 349.0
212 242.0 86.0
213 432.0 426.0
214 379.0 484.0
215 581.0 263.0
216 500.0 110.0
217 426.0 245.0
218 72.0 365.0
219 477.0 273.0
220 323.0 504.0
221 585.0 335.0
222 188.0 16.0
223 360.0 403.0
224 398.0 532.0
225 517.0 321.0
226 127.0 56.0
227 330.0 223.0
228 454.0 116.0
229 452.0 538.0
230 533.0 470.0
231 61.0 421.0
232 630.0 182.0
233 24.0 229.0
234 115.0 37.0
235 594.0 626.0
236 248.0 397.0
237 519.0 316.0
238 332.0 365.0
239 155.0 246.0
240 329.0 368.0
241 50.0 85.0
242 82.0 184.0
243 178.0 330.0
244 370.0 412.0
245 120.0 587.0
246 188.0 113.0
247 57.0 135.0
248 5.0 626.0
249 65.0 638.0
250 109.0 574.0
251 444.0 160.0
252 168.0 489.0
253 449.0 91.0
254 476.0 36.0
255 404.0 639.0
256 571.0 73.0
257 318.0 400.0
258 411.0 547.0
259 81.0 611.0
260 476.0 401.0
261 182.0 511.0
262 339.0 215.0
263 623.0 162.0
264 89.0 72.0
265 478.0 12.0
266 270.0 396.0
267 132.0 578.0
268 124.0 178.0
269 243.0 118.0
270 612.0 281.0
271 470.0 440.0
272 317.0 7.0
273 225.0 175.0
274 471.0 36.0
275 405.0 4.0
276 617.0 515.0
277 159.0 339.0
278 202.0 100.0
279 307.0 121.0
280 576.0 318.0
281 382.0 409.0
282 332.0 83.0
283 64.0 462.0
284 151.0 278.0
285 260.0 171.0
286 405.0 68.0
287 128.0 104.0
288 74.0 250.0
289 322.0 571.0
290 336.0 505.0
291 304.0 466.0
292 430.0 1.0
293 152.0 420.0
294 36.0 618.0
295 12.0 304.0
296 631.0 425.0
297 586.0 183.0
298 624.0 60.0
299 311.0 543.0
300 337.0 126.0
301 88.0 617.0
302 430.0 24.0
303 521.0 189.0
304 496.0 30.0
305 246.0 373.0
306 229.0 596.0
307 313.0 119.0
308 591.0 623.0
309 452.0 292.0
310 266.0 398.0
311 171.0 298.0
312 536.0 319.0
313 507.0 194.0
314 621.0 302.0
315 467.0 119.0
316 512.0 625.0
317 545.0 131.0
318 223.0 278.0
319 272.0 55.0
320 83.0 502.0
321 170.0 111.0
322 564.0 331.0
323 121.0 126.0
324 510.0 288.0
325 91.0 197.0
326 592.0 448.0
327 640.0 265.0
328 568.0 6.0
329 450.0 539.0
330 10.0 173.0
331 517.0 388.0
332 386.0 372.0
333 33.0 186.0
334 483.0 537.0
335 300.0 467.0
336 412.0 613.0
337 422.0 456.0
338 21.0 449.0
339 452.0 585.0
340 36.0 55.0
341 185.0 328.0
342 348.0 386.0
343 118.0 504.0
344 446.0 296.0
345 245.0 96.0
346 132.0 556.0
347 105.0 402.0
348 172.0 550.0
349 99.0 198.0
350 185.0 338.0
351 624.0 442.0
352 479.0 325.0
353 218.0 291.0
354 571.0 87.0
355 401.0 406.0
356 599.0 175.0
357 52.0 241.0
358 276.0 160.0
359 370.0 162.0
360 108.0 173.0
361 497.0 361.0
362 338.0 285.0
363 378.0 39.0
364 225.0 60.0
365 324.0 519.0
366 455.0 339.0
367 33.0 534.0
368 468.0 512.0
369 255.0 588.0
370 171.0 298.0
371 162.0 278.0
372 59.0 267.0
373 578.0 628.0
374 370.0 414.0
375 316.0 72.0
376 261.0 300.0
377 484.0 15.0
378 227.0 149.0
379 194.0 298.0
380 578.0 411.0
381 421.0 170.0
382 281.0 340.0
383 375.0 474.0
384 325.0 354.0
385 139.0 566.0
386 34.0 362.0
387 535.0 157.0
388 422.0 280.0
389 271.0 83.0
390 458.0 207.0
391 284.0 131.0
392 571.0 195.0
393 46.0 181.0
394 613.0 546.0
395 384.0 266.0
396 17.0 60.0
397 106.0 428.0
398 267.0 117.0
399 504.0 38.0
400 78.0 562.0
401 123.0 264.0
402 291.0 261.0
403 581.0 81.0
404 166.0 400.0
405 456.0 147.0
406 317.0 577.0
407 206.0 188.0
408 70.0 357.0
409 349.0 236.0
410 181.0 434.0
411 335.0 189.0
412 249.0 16.0
413 120.0 271.0
414 243.0 462.0
415 173.0 573.0
416 560.0 71.0
417 579.0 440.0
418 402.0 360.0
419 627.0 432.0
420 489.0 200.0
421 197.0 27.0
422 357.0 513.0
423 552.0 389.0
424 249.0 419.0
425 174.0 59.0
426 320.0 250.0
427 54.0 104.0
428 193.0 32.0
429 219.0 234.0
430 121.0 292.0
431 95.0 250.0
432 334.0 430.0
433 573.0 368.0
434 84.0 509.0
435 521.0 75.0
436 109.0 587.0
437 92.0 87.0
438 190.0 132.0
439 17.0 640.0
440 352.0 89.0
441 455.0 150.0
442 155.0 591.0
443 395.0 251.0
444 283.0 612.0
445 555.0 596.0
446 479.0 140.0
447 416.0 305.0
448 590.0 334.0
449 252.0 292.0
450 256.0 147.0
451 3.0 246.0
452 353.0 43.0
453 115.0 55.0
454 131.0 530.0
455 535.0 60.0
456 262.0 568.0
457 426.0 623.0
458 546.0 368.0
459 483.0 564.0
460 18.0 216.0
461 380.0 66.0
462 25.0 235.0
463 83.0 246.0
464 514.0 164.0
465 490.0 30.0
466 627.0 368.0
467 401.0 499.0
468 205.0 89.0
469 532.0 519.0
470 572.0 268.0
471 634.0 370.0
472 301.0 119.0
473 485.0 276.0
474 37.0 544.0
475 587.0 295.0
476 504.0 278.0
477 380.0 76.0
478 160.0 560.0
479 223.0 80.0
480 244.0 568.0
481 566.0 570.0
482 500.0 226.0
483 27.0 108.0
484 207.0 571.0
485 257.0 63.0
486 466.0 469.0
487 542.0 377.0
488 85.0 33.0
489 309.0 351.0
490 470.0 534.0
491 134.0 259.0
492 533.0 163.0
493 271.0 114.0
494 400.0 197.0
495 466.0 186.0
496 492.0 61.0
497 199.0 42.0
498 244.0 535.0
499 121.0 601.0
500 5.0 176.0
501 146.0 36.0
502 343.0 342.0
503 45.0 90.0
504 549.0 431.0
505 74.0 247.0
506 372.0 562.0
507 468.0 44.0
508 220.0 149.0
509 187.0 125.0
510 466.0 612.0
511 473.0 74.0
512 549.0 337.0
513 158.0 69.0
514 234.0 70.0
515 238.0 379.0
516 152.0 568.0
517 133.0 109.0
518 450.0 138.0
519 344.0 576.0
520 473.0 350.0
521 192.0 536.0
522 564.0 549.0
523 156.0 33.0
524 483.0 115.0
525 407.0 389.0
526 369.0 536.0
527 76.0 611.0
528 564.0 511.0
529 605.0 157.0
530 198.0 28.0
531 145.0 154.0
532 544.0 359.0
533 135.0 616.0
534 624.0 93.0
535 157.0 147.0
536 112.0 36.0
537 458.0 7.0
538 150.0 459.0
539 190.0 305.0
540 211.0 312.0
541 578.0 491.0
542 83.0 189.0
543 25.0 440.0
544 82.0 193.0
545 208.0 356.0
546 271.0 75.0
547 569.0 289.0
548 107.0 34.0
549 138.0 612.0
550 435.0 265.0
551 517.0 3.0
552 409.0 421.0
553 91.0 496.0
554 409.0 557.0
555 329.0 170.0
556 570.0 543.0
557 605.0 241.0
558 128.0 540.0
559 186.0 343.0
560 502.0 181.0
561 337.0 472.0
562 232.0 210.0
563 274.0 555.0
564 481.0 263.0
565 487.0 109.0
566 500.0 246.0
567 377.0 498.0
568 387.0 30.0
569 635.0 613.0
570 40.0 308.0
571 493.0 70.0
572 279.0 265.0
573 160.0 583.0
574 395.0 106.0
575 448.0 133.0
576 281.0 398.0
577 31.0 326.0
578 621.0 630.0
579 281.0 233.0
580 35.0 101.0
581 87.0 614.0
582 278.0 501.0
583 439.0 601.0
584 630.0 276.0
585 143.0 545.0
586 412.0 370.0
587 168.0 314.0
588 345.0 606.0
589 83.0 206.0
590 535.0 355.0
591 206.0 585.0
592 104.0 454.0
593 294.0 534.0
594 131.0 59.0
595 548.0 8.0
596 588.0 284.0
597 419.0 550.0
598 276.0 296.0
599 398.0 521.0
600 38.0 164.0
601 367.0 615.0
602 18.0 271.0
603 51.0 513.0
604 461.0 335.0
605 492.0 187.0
606 557.0 596.0
607 581.0 447.0
608 630.0 257.0
609 133.0 230.0
610 512.0 170.0
611 226.0 499.0
612 399.0 115.0
613 306.0 53.0
614 393.0 277.0
615 216.0 375.0
616 463.0 65.0
617 175.0 126.0
618 351.0 354.0
619 154.0 182.0
620 468.0 85.0
621 513.0 330.0
622 188.0 522.0
623 119.0 118.0
624 131.0 92.0
625 117.0 326.0
626 623.0 132.0
627 513.0 58.0
628 93.0 456.0
629 356.0 203.0
630 560.0 441.0
631 317.0 10.0
632 139.0 39.0
633 396.0 420.0
634 50.0 89.0
635 340.0 153.0
636 408.0 137.0
637 323.0 598.0
638 618.0 421.0
639 463.0 461.0
640 26.0 391.0
EOF





